NAME : R205.9498.tour
COMMENT : Cost = 0_9498
COMMENT : Found by LKH [Keld Helsgaun] Wed Sep 13 19:26:42 2017
TYPE : TOUR
DIMENSION : 105
TOUR_SECTION
1
28
70
32
89
63
12
64
91
65
50
20
8
19
9
47
49
18
61
90
105
53
83
48
37
46
84
6
85
62
17
45
39
87
86
100
7
95
98
88
58
44
92
101
38
94
97
14
59
102
29
13
30
34
66
72
10
82
52
31
77
51
4
80
79
35
36
67
21
33
11
71
2
104
96
60
93
99
15
43
16
3
74
73
40
68
24
76
42
23
75
57
5
26
56
55
25
81
69
78
103
54
41
22
27
-1
EOF
